p cnf 15 27
2 -1 0
2 0
-1 -2 0
-15 -13 12 1 0
-8 1 5 15 0
10 15 0
10 -4 12 5 0
-6 -13 4 13 0
-15 4 -2 -10 0
-7 12 0
-6 4 0
13 0
-7 -5 -12 0
14 0
1 5 14 7 0
2 -11 0
-7 0
-13 -4 7 0
-5 0
-6 -11 -1 0
-2 14 -10 15 0
-9 0
-8 -9 7 0
-7 0
8 -6 6 0
1 4 0
-15 5 12 13 0
